
Gurobi 11.0.3 (linux64) logging started Sat Nov 23 03:53:13 2024

Set parameter LogFile to value "/home/yihong/Coding/OR_SUC/SUC_results_bigM100000_thread4/case24_ieee_rts_theta0.1_epsilon0.025_gurobi_seed980000_num_gen100_N_WDR100_load_scaling_factor1_proposed_T28quadra_cost.txt"
Set parameter TimeLimit to value 3600
Gurobi Optimizer version 11.0.3 build v11.0.3rc0 (linux64 - "Ubuntu 20.04.6 LTS")

CPU model: AMD EPYC 7532 32-Core Processor, instruction set [SSE2|AVX|AVX2]
Thread count: 64 physical cores, 128 logical processors, using up to 4 threads

Optimize a model with 60682 rows, 34821 columns and 827226 nonzeros
Model fingerprint: 0x08c8093b
Model has 2800 quadratic constraints
Variable types: 32021 continuous, 2800 integer (2800 binary)
Coefficient statistics:
  Matrix range     [3e-04, 2e+03]
  QMatrix range    [2e-03, 8e-03]
  QLMatrix range   [2e-01, 6e+01]
  Objective range  [1e+00, 1e+00]
  Bounds range     [1e+00, 1e+00]
  RHS range        [1e+00, 9e+03]
Presolve removed 49146 rows and 15038 columns
Presolve time: 0.31s
Presolved: 11536 rows, 19783 columns, 72627 nonzeros
Presolved model has 2800 quadratic constraint(s)
Variable types: 16983 continuous, 2800 integer (2800 binary)

Root relaxation: objective 4.311549e+04, 8819 iterations, 0.23 seconds (0.32 work units)

    Nodes    |    Current Node    |     Objective Bounds      |     Work
 Expl Unexpl |  Obj  Depth IntInf | Incumbent    BestBd   Gap | It/Node Time

H    0     0                    732248.86013 43115.4864  94.1%     -    0s
*    0     0               0    732248.86013 43115.4864  94.1%     -    0s
     0     0 353376.767    0  841 732248.860 353376.767  51.7%     -    1s
     0     0 670451.164    0  545 732248.860 670451.164  8.44%     -    1s
     0     0 670563.279    0   59 732248.860 670563.279  8.42%     -    2s
     0     0 670756.815    0   45 732248.860 670756.815  8.40%     -    2s
     0     0 670767.024    0   45 732248.860 670767.024  8.40%     -    2s
     0     0 670767.024    0   45 732248.860 670767.024  8.40%     -    2s
     0     0 670768.209    0   45 732248.860 670768.209  8.40%     -    2s
     0     2 670768.209    0   45 732248.860 670768.209  8.40%     -    3s
    76    80 670965.170   12   37 732248.860 670774.309  8.40%  40.7    5s
H  197   214                    671541.48032 670774.309  0.11%  37.3    6s
   403   322 671509.491   42   45 671541.480 670784.229  0.11%  37.7   11s
   425   337 670874.261   10  102 671541.480 670805.571  0.11%  35.8   15s
   572   452 671101.379   30   18 671541.480 670831.132  0.11%  86.8   20s
  1324   666 671458.391   73   14 671541.480 670856.129  0.10%  80.2   25s

Cutting planes:
  Gomory: 9
  Implied bound: 69
  MIR: 37
  Flow cover: 27
  RLT: 54
  Relax-and-lift: 1

Explored 2019 nodes (163447 simplex iterations) in 27.32 seconds (34.18 work units)
Thread count was 4 (of 128 available processors)

Solution count 2: 671541 732249 

Optimal solution found (tolerance 1.00e-03)
Warning: max constraint violation (6.3616e-09) exceeds tolerance
Best objective 6.715414803200e+05, best bound 6.708715890805e+05, gap 0.0998%
